Welcome to the CBC MILP Solver 
Version: 2.10.7 
Build Date: Feb 14 2022 

command line - cbc inputs/new_tr/order/jump_3_40_tiers_input.lp sec 1800 solve solu solutions/new_tr/jump_3_40_tiers_input.lp (default strategy 1)
seconds was changed from 1e+100 to 1800
Continuous objective value is 41757.3 - 2.30 seconds
Cgl0002I 403 variables fixed
Cgl0003I 0 fixed, 1 tightened bounds, 691 strengthened rows, 0 substitutions
Cgl0003I 0 fixed, 0 tightened bounds, 19 strengthened rows, 0 substitutions
Cgl0004I processed model has 4657 rows, 1399 columns (1399 integer (1358 of which binary)) and 15587 elements
Cutoff increment increased from 1e-05 to 0.9999
Cbc0045I 1 integer variables out of 1399 objects (1399 integer) have cost of 1 - high priority
Cbc0045I branch on satisfied Y create fake objective Y random cost Y
Cbc0038I Initial state - 830 integers unsatisfied sum - 215.579
Cbc0038I Pass   1: (3.89 seconds) suminf.  102.56536 (577) obj. 65781.7 iterations 2535
Cbc0038I Pass   2: (4.06 seconds) suminf.   92.35445 (524) obj. 75482.4 iterations 645
Cbc0038I Pass   3: (4.16 seconds) suminf.   90.62640 (491) obj. 74222.4 iterations 389
Cbc0038I Pass   4: (4.24 seconds) suminf.   84.37080 (483) obj. 73452.6 iterations 283
Cbc0038I Pass   5: (4.32 seconds) suminf.   83.10236 (500) obj. 73455.6 iterations 322
Cbc0038I Pass   6: (4.34 seconds) suminf.   82.30445 (494) obj. 73431.6 iterations 51
Cbc0038I Pass   7: (4.38 seconds) suminf.   82.50483 (468) obj. 73327.7 iterations 129
Cbc0038I Pass   8: (4.44 seconds) suminf.   80.30083 (456) obj. 73572.4 iterations 176
Cbc0038I Pass   9: (4.45 seconds) suminf.   79.37942 (453) obj. 73468.5 iterations 39
Cbc0038I Pass  10: (4.55 seconds) suminf.   74.41362 (487) obj. 73979 iterations 396
Cbc0038I Pass  11: (4.61 seconds) suminf.   74.62627 (469) obj. 74125.8 iterations 168
Cbc0038I Pass  12: (4.68 seconds) suminf.   69.52987 (471) obj. 76844.5 iterations 260
Cbc0038I Pass  13: (4.69 seconds) suminf.   69.13659 (479) obj. 76584.5 iterations 28
Cbc0038I Pass  14: (4.81 seconds) suminf.   60.90933 (448) obj. 77812.6 iterations 508
Cbc0038I Pass  15: (4.83 seconds) suminf.   60.13207 (448) obj. 76656 iterations 93
Cbc0038I Pass  16: (4.91 seconds) suminf.   57.19175 (433) obj. 74595.2 iterations 250
Cbc0038I Pass  17: (4.93 seconds) suminf.   58.26754 (438) obj. 74957.6 iterations 65
Cbc0038I Pass  18: (5.06 seconds) suminf.   50.57278 (444) obj. 77624.5 iterations 552
Cbc0038I Pass  19: (5.13 seconds) suminf.   49.74201 (444) obj. 77659 iterations 256
Cbc0038I Pass  20: (5.15 seconds) suminf.   49.45307 (445) obj. 77594.6 iterations 67
Cbc0038I Pass  21: (5.24 seconds) suminf.   51.55240 (426) obj. 78221.6 iterations 366
Cbc0038I Pass  22: (5.30 seconds) suminf.   51.07099 (429) obj. 76949.4 iterations 264
Cbc0038I Pass  23: (5.34 seconds) suminf.   49.83001 (429) obj. 76524 iterations 121
Cbc0038I Pass  24: (5.39 seconds) suminf.   48.62096 (421) obj. 76843.9 iterations 180
Cbc0038I Pass  25: (5.42 seconds) suminf.   48.55868 (410) obj. 77451.8 iterations 128
Cbc0038I Pass  26: (5.52 seconds) suminf.   49.41470 (400) obj. 76763.2 iterations 460
Cbc0038I Pass  27: (5.58 seconds) suminf.   47.90623 (405) obj. 76773.1 iterations 194
Cbc0038I Pass  28: (5.58 seconds) suminf.   47.70583 (404) obj. 76773.1 iterations 4
Cbc0038I Pass  29: (5.68 seconds) suminf.   45.58616 (341) obj. 76439.2 iterations 442
Cbc0038I Pass  30: (5.72 seconds) suminf.   43.07241 (344) obj. 76429.8 iterations 204
Cbc0038I Pass  31: (5.75 seconds) suminf.   42.89966 (358) obj. 76487.2 iterations 97
Cbc0038I Pass  32: (5.83 seconds) suminf.   42.62541 (362) obj. 76499.7 iterations 351
Cbc0038I Pass  33: (5.85 seconds) suminf.   40.37204 (356) obj. 76505.4 iterations 106
Cbc0038I Pass  34: (5.88 seconds) suminf.   40.04542 (348) obj. 76510.9 iterations 100
Cbc0038I Pass  35: (5.95 seconds) suminf.   40.65773 (351) obj. 76402.2 iterations 332
Cbc0038I Pass  36: (5.99 seconds) suminf.   40.78634 (333) obj. 76328.9 iterations 139
Cbc0038I Pass  37: (6.01 seconds) suminf.   39.99628 (330) obj. 76709.8 iterations 85
Cbc0038I Pass  38: (6.04 seconds) suminf.   38.00100 (325) obj. 76828.6 iterations 100
Cbc0038I Pass  39: (6.06 seconds) suminf.   37.85960 (323) obj. 78206.8 iterations 101
Cbc0038I Pass  40: (6.11 seconds) suminf.   37.71119 (336) obj. 76173.7 iterations 210
Cbc0038I Pass  41: (6.15 seconds) suminf.   36.31925 (325) obj. 76133.8 iterations 137
Cbc0038I Pass  42: (6.20 seconds) suminf.   35.43445 (321) obj. 76158.2 iterations 214
Cbc0038I Pass  43: (6.23 seconds) suminf.   34.10699 (306) obj. 76072.5 iterations 113
Cbc0038I Pass  44: (6.29 seconds) suminf.   34.52560 (306) obj. 76104.3 iterations 258
Cbc0038I Pass  45: (6.32 seconds) suminf.   32.26098 (306) obj. 75926.2 iterations 145
Cbc0038I Pass  46: (6.42 seconds) suminf.   35.04029 (293) obj. 75839 iterations 453
Cbc0038I Pass  47: (6.48 seconds) suminf.   32.88963 (320) obj. 75820.8 iterations 257
Cbc0038I Pass  48: (6.50 seconds) suminf.   31.55496 (319) obj. 75823 iterations 88
Cbc0038I Pass  49: (6.52 seconds) suminf.   31.00915 (314) obj. 75810 iterations 50
Cbc0038I Pass  50: (6.53 seconds) suminf.   30.78152 (301) obj. 75770.2 iterations 54
Cbc0038I Pass  51: (6.64 seconds) suminf.   32.82987 (275) obj. 75327 iterations 529
Cbc0038I Pass  52: (6.70 seconds) suminf.   31.28090 (292) obj. 76345.7 iterations 263
Cbc0038I Pass  53: (6.79 seconds) suminf.   27.82649 (275) obj. 74944.3 iterations 473
Cbc0038I Pass  54: (6.81 seconds) suminf.   27.35847 (275) obj. 74902.1 iterations 69
Cbc0038I Pass  55: (6.91 seconds) suminf.   25.09500 (219) obj. 79481.1 iterations 546
Cbc0038I Pass  56: (6.93 seconds) suminf.   24.83455 (214) obj. 79856.3 iterations 88
Cbc0038I Pass  57: (6.98 seconds) suminf.   19.92185 (208) obj. 78901 iterations 238
Cbc0038I Pass  58: (7.00 seconds) suminf.   19.89580 (209) obj. 78733.5 iterations 96
Cbc0038I Pass  59: (7.04 seconds) suminf.   20.37473 (193) obj. 79520.7 iterations 179
Cbc0038I Pass  60: (7.06 seconds) suminf.   19.89282 (190) obj. 79520.7 iterations 80
Cbc0038I Pass  61: (7.10 seconds) suminf.   16.44625 (172) obj. 79521.9 iterations 168
Cbc0038I Pass  62: (7.11 seconds) suminf.   16.49402 (178) obj. 79396.1 iterations 42
Cbc0038I Pass  63: (7.24 seconds) suminf.   17.70864 (152) obj. 78431.8 iterations 712
Cbc0038I Pass  64: (7.32 seconds) suminf.   14.65116 (187) obj. 78031.3 iterations 468
Cbc0038I Pass  65: (7.39 seconds) suminf.   12.62940 (152) obj. 77778.2 iterations 370
Cbc0038I Pass  66: (7.45 seconds) suminf.   10.95514 (140) obj. 77736.5 iterations 302
Cbc0038I Pass  67: (7.49 seconds) suminf.   10.17828 (149) obj. 77699.3 iterations 196
Cbc0038I Pass  68: (7.59 seconds) suminf.   12.11721 (106) obj. 77681 iterations 627
Cbc0038I Pass  69: (7.65 seconds) suminf.   10.68575 (104) obj. 77681 iterations 341
Cbc0038I Pass  70: (7.71 seconds) suminf.    4.81402 (79) obj. 77679.9 iterations 257
Cbc0038I Pass  71: (7.72 seconds) suminf.    3.88542 (75) obj. 77672.2 iterations 47
Cbc0038I Pass  72: (7.81 seconds) suminf.    8.75550 (69) obj. 77824 iterations 484
Cbc0038I Pass  73: (7.82 seconds) suminf.    8.55133 (64) obj. 77824 iterations 33
Cbc0038I Pass  74: (7.90 seconds) suminf.    3.09803 (45) obj. 77824 iterations 442
Cbc0038I Pass  75: (7.90 seconds) suminf.    0.69144 (19) obj. 77824 iterations 8
Cbc0038I Pass  76: (7.97 seconds) suminf.    2.52277 (13) obj. 77824 iterations 254
Cbc0038I Pass  77: (7.98 seconds) suminf.    0.00000 (0) obj. 77824 iterations 36
Cbc0038I Solution found of 77824
Cbc0038I Cleaned solution of 77824
Cbc0038I Before mini branch and bound, 268 integers at bound fixed and 0 continuous
Cbc0038I Mini branch and bound did not improve solution (8.03 seconds)
Cbc0038I Round again with cutoff of 74246.5
Cbc0038I Pass  78: (8.04 seconds) suminf.  102.56536 (577) obj. 65781.7 iterations 0
Cbc0038I Pass  79: (8.21 seconds) suminf.   91.75516 (522) obj. 74246.5 iterations 830
Cbc0038I Pass  80: (8.27 seconds) suminf.   90.83406 (504) obj. 73852.6 iterations 218
Cbc0038I Pass  81: (8.35 seconds) suminf.   84.58190 (493) obj. 73448.1 iterations 338
Cbc0038I Pass  82: (8.41 seconds) suminf.   83.73645 (493) obj. 73442.3 iterations 231
Cbc0038I Pass  83: (8.44 seconds) suminf.   82.58579 (485) obj. 73475.3 iterations 106
Cbc0038I Pass  84: (8.49 seconds) suminf.   80.30083 (456) obj. 73572.4 iterations 160
Cbc0038I Pass  85: (8.50 seconds) suminf.   79.37942 (453) obj. 73468.5 iterations 34
Cbc0038I Pass  86: (8.58 seconds) suminf.   75.29809 (489) obj. 73942.2 iterations 347
Cbc0038I Pass  87: (8.63 seconds) suminf.   72.95958 (464) obj. 74246.5 iterations 162
Cbc0038I Pass  88: (8.69 seconds) suminf.   68.53472 (481) obj. 74246.5 iterations 204
Cbc0038I Pass  89: (8.70 seconds) suminf.   68.98316 (476) obj. 74246.5 iterations 28
Cbc0038I Pass  90: (8.76 seconds) suminf.   67.82970 (446) obj. 74246.5 iterations 213
Cbc0038I Pass  91: (8.79 seconds) suminf.   66.07164 (444) obj. 74246.5 iterations 104
Cbc0038I Pass  92: (8.81 seconds) suminf.   65.57747 (449) obj. 74246.5 iterations 70
Cbc0038I Pass  93: (8.91 seconds) suminf.   57.16538 (469) obj. 74246.5 iterations 415
Cbc0038I Pass  94: (8.98 seconds) suminf.   55.52690 (448) obj. 74246.5 iterations 263
Cbc0038I Pass  95: (9.01 seconds) suminf.   52.63697 (447) obj. 74246.5 iterations 107
Cbc0038I Pass  96: (9.05 seconds) suminf.   53.15170 (432) obj. 74246.5 iterations 132
Cbc0038I Pass  97: (9.14 seconds) suminf.   48.38376 (363) obj. 74246.5 iterations 402
Cbc0038I Pass  98: (9.19 seconds) suminf.   49.07227 (389) obj. 74246.5 iterations 186
Cbc0038I Pass  99: (9.20 seconds) suminf.   49.66796 (390) obj. 74246.5 iterations 24
Cbc0038I Pass 100: (9.26 seconds) suminf.   48.96634 (391) obj. 74246.5 iterations 253
Cbc0038I Pass 101: (9.27 seconds) suminf.   49.21391 (413) obj. 74246.5 iterations 47
Cbc0038I Pass 102: (9.35 seconds) suminf.   49.30415 (393) obj. 74246.5 iterations 324
Cbc0038I Pass 103: (9.37 seconds) suminf.   49.84117 (387) obj. 74246.5 iterations 93
Cbc0038I Pass 104: (9.44 seconds) suminf.   53.05579 (380) obj. 74246.5 iterations 292
Cbc0038I Pass 105: (9.48 seconds) suminf.   49.90401 (379) obj. 74246.5 iterations 164
Cbc0038I Pass 106: (9.48 seconds) suminf.   49.90965 (379) obj. 74246.5 iterations 11
Cbc0038I Pass 107: (9.58 seconds) suminf.   49.23005 (378) obj. 74246.5 iterations 442
Cbc0038I Pass 108: (9.67 seconds) suminf.   46.59920 (414) obj. 74246.5 iterations 451
Cbc0038I Pass 109: (9.70 seconds) suminf.   46.34877 (406) obj. 74246.5 iterations 76
Cbc0038I Pass 110: (9.77 seconds) suminf.   46.91838 (359) obj. 74246.5 iterations 350
Cbc0038I Pass 111: (9.82 seconds) suminf.   46.54858 (370) obj. 74246.5 iterations 225
Cbc0038I Pass 112: (9.92 seconds) suminf.   44.81116 (374) obj. 74246.5 iterations 512
Cbc0038I Pass 113: (9.95 seconds) suminf.   43.73748 (369) obj. 74246.5 iterations 116
Cbc0038I Pass 114: (9.97 seconds) suminf.   43.53060 (371) obj. 74246.5 iterations 50
Cbc0038I Pass 115: (10.06 seconds) suminf.   39.27655 (360) obj. 74246.5 iterations 444
Cbc0038I Pass 116: (10.09 seconds) suminf.   37.77923 (357) obj. 74246.5 iterations 123
Cbc0038I Pass 117: (10.19 seconds) suminf.   34.80125 (328) obj. 74246.5 iterations 498
Cbc0038I Pass 118: (10.24 seconds) suminf.   32.76529 (321) obj. 74246.5 iterations 163
Cbc0038I Pass 119: (10.37 seconds) suminf.   34.33573 (277) obj. 74246.5 iterations 686
Cbc0038I Pass 120: (10.46 seconds) suminf.   29.82212 (250) obj. 74246.5 iterations 448
Cbc0038I Pass 121: (10.47 seconds) suminf.   29.99219 (254) obj. 74246.5 iterations 25
Cbc0038I Pass 122: (10.63 seconds) suminf.   28.37467 (244) obj. 74246.5 iterations 808
Cbc0038I Pass 123: (10.65 seconds) suminf.   25.89638 (233) obj. 74246.5 iterations 92
Cbc0038I Pass 124: (10.68 seconds) suminf.   25.73670 (237) obj. 74246.5 iterations 88
Cbc0038I Pass 125: (10.73 seconds) suminf.   25.81536 (238) obj. 74246.5 iterations 243
Cbc0038I Pass 126: (10.76 seconds) suminf.   24.16757 (238) obj. 74246.5 iterations 140
Cbc0038I Pass 127: (10.88 seconds) suminf.   19.29048 (191) obj. 74246.5 iterations 630
Cbc0038I Pass 128: (10.93 seconds) suminf.   17.24466 (193) obj. 74246.5 iterations 233
Cbc0038I Pass 129: (10.95 seconds) suminf.   17.03777 (196) obj. 74246.5 iterations 61
Cbc0038I Pass 130: (11.00 seconds) suminf.   18.35126 (181) obj. 74246.5 iterations 255
Cbc0038I Pass 131: (11.03 seconds) suminf.   14.39366 (177) obj. 74246.5 iterations 164
Cbc0038I Pass 132: (11.10 seconds) suminf.   15.24135 (167) obj. 74246.5 iterations 280
Cbc0038I Pass 133: (11.10 seconds) suminf.   15.24135 (167) obj. 74246.5 iterations 2
Cbc0038I Pass 134: (11.14 seconds) suminf.   14.86413 (156) obj. 74246.5 iterations 199
Cbc0038I Pass 135: (11.20 seconds) suminf.   13.13970 (152) obj. 74246.5 iterations 251
Cbc0038I Pass 136: (11.28 seconds) suminf.   13.22136 (141) obj. 74246.5 iterations 544
Cbc0038I Pass 137: (11.30 seconds) suminf.   10.86994 (135) obj. 74246.5 iterations 79
Cbc0038I Pass 138: (11.37 seconds) suminf.   14.13893 (131) obj. 74246.5 iterations 454
Cbc0038I Pass 139: (11.43 seconds) suminf.   10.26014 (113) obj. 74246.5 iterations 307
Cbc0038I Pass 140: (11.44 seconds) suminf.    9.85237 (112) obj. 74246.5 iterations 3
Cbc0038I Pass 141: (11.54 seconds) suminf.   11.00323 (111) obj. 74246.5 iterations 634
Cbc0038I Pass 142: (11.59 seconds) suminf.    7.85126 (105) obj. 74246.5 iterations 280
Cbc0038I Pass 143: (11.63 seconds) suminf.    8.47542 (98) obj. 74246.5 iterations 210
Cbc0038I Pass 144: (11.79 seconds) suminf.   61.26014 (308) obj. 74246.5 iterations 991
Cbc0038I Pass 145: (11.93 seconds) suminf.   37.95932 (221) obj. 74246.5 iterations 793
Cbc0038I Pass 146: (11.97 seconds) suminf.   32.42118 (217) obj. 74246.5 iterations 204
Cbc0038I Pass 147: (11.98 seconds) suminf.   31.38420 (217) obj. 74246.5 iterations 44
Cbc0038I Pass 148: (11.99 seconds) suminf.   31.37177 (217) obj. 74246.5 iterations 34
Cbc0038I Pass 149: (12.04 seconds) suminf.   24.93053 (204) obj. 74246.5 iterations 226
Cbc0038I Pass 150: (12.05 seconds) suminf.   24.30823 (203) obj. 74246.5 iterations 75
Cbc0038I Pass 151: (12.10 seconds) suminf.   18.37899 (195) obj. 74246.5 iterations 258
Cbc0038I Pass 152: (12.11 seconds) suminf.   18.69331 (195) obj. 74246.5 iterations 11
Cbc0038I Pass 153: (12.19 seconds) suminf.   15.90499 (167) obj. 74246.5 iterations 491
Cbc0038I Pass 154: (12.22 seconds) suminf.   15.01775 (175) obj. 74246.5 iterations 181
Cbc0038I Pass 155: (12.25 seconds) suminf.   13.01643 (172) obj. 74246.5 iterations 121
Cbc0038I Pass 156: (12.30 seconds) suminf.   11.56716 (171) obj. 74246.5 iterations 285
Cbc0038I Pass 157: (12.32 seconds) suminf.   11.43032 (164) obj. 74246.5 iterations 88
Cbc0038I Pass 158: (12.36 seconds) suminf.   11.94946 (160) obj. 74246.5 iterations 290
Cbc0038I Pass 159: (12.38 seconds) suminf.    9.93580 (162) obj. 74246.5 iterations 90
Cbc0038I Pass 160: (12.42 seconds) suminf.   11.57683 (165) obj. 74246.5 iterations 211
Cbc0038I Pass 161: (12.43 seconds) suminf.   10.87392 (164) obj. 74246.5 iterations 32
Cbc0038I Pass 162: (12.48 seconds) suminf.   11.26380 (148) obj. 74246.5 iterations 257
Cbc0038I Pass 163: (12.50 seconds) suminf.    9.22697 (153) obj. 74246.5 iterations 142
Cbc0038I Pass 164: (12.56 seconds) suminf.   10.63845 (134) obj. 74246.5 iterations 347
Cbc0038I Pass 165: (12.58 seconds) suminf.    8.59271 (133) obj. 74246.5 iterations 125
Cbc0038I Pass 166: (12.63 seconds) suminf.   15.38106 (136) obj. 74246.5 iterations 346
Cbc0038I Pass 167: (12.64 seconds) suminf.   10.82336 (136) obj. 74246.5 iterations 106
Cbc0038I Pass 168: (12.67 seconds) suminf.    8.54141 (120) obj. 74246.5 iterations 129
Cbc0038I Pass 169: (12.68 seconds) suminf.    8.91765 (126) obj. 74246.5 iterations 75
Cbc0038I Pass 170: (12.73 seconds) suminf.   11.42922 (78) obj. 74246.5 iterations 351
Cbc0038I Pass 171: (12.76 seconds) suminf.    7.57962 (65) obj. 74246.5 iterations 150
Cbc0038I Pass 172: (12.77 seconds) suminf.    4.46361 (65) obj. 74246.5 iterations 72
Cbc0038I Pass 173: (12.79 seconds) suminf.    5.67870 (68) obj. 74246.5 iterations 191
Cbc0038I Pass 174: (12.81 seconds) suminf.    5.10876 (56) obj. 74246.5 iterations 97
Cbc0038I Pass 175: (12.87 seconds) suminf.    1.17235 (26) obj. 74246.5 iterations 259
Cbc0038I Pass 176: (12.88 seconds) suminf.    1.13348 (25) obj. 74246.5 iterations 40
Cbc0038I Pass 177: (13.08 seconds) suminf.   73.73396 (361) obj. 74246.5 iterations 1214
Cbc0038I No solution found this major pass
Cbc0038I Before mini branch and bound, 209 integers at bound fixed and 0 continuous
Cbc0038I Mini branch and bound did not improve solution (13.09 seconds)
Cbc0038I After 13.09 seconds - Feasibility pump exiting with objective of 77824 - took 9.85 seconds
Cbc0012I Integer solution of 77824 found by feasibility pump after 0 iterations and 0 nodes (13.09 seconds)
Cbc0031I 8 added rows had average density of 3.75
Cbc0013I At root node, 8 cuts changed objective from 42057.516 to 42095.332 in 4 passes
Cbc0014I Cut generator 0 (Probing) - 1 row cuts average 3.0 elements, 2 column cuts (2 active)  in 0.041 seconds - new frequency is 1
Cbc0014I Cut generator 1 (Gomory) - 6 row cuts average 3.7 elements, 0 column cuts (0 active)  in 0.255 seconds - new frequency is 1
Cbc0014I Cut generator 2 (Knapsack) - 0 row cuts average 0.0 elements, 0 column cuts (0 active)  in 0.009 seconds - new frequency is -100
Cbc0014I Cut generator 3 (Clique) - 0 row cuts average 0.0 elements, 0 column cuts (0 active)  in 0.010 seconds - new frequency is -100
Cbc0014I Cut generator 4 (MixedIntegerRounding2) - 0 row cuts average 0.0 elements, 0 column cuts (0 active)  in 0.009 seconds - new frequency is -100
Cbc0014I Cut generator 5 (FlowCover) - 0 row cuts average 0.0 elements, 0 column cuts (0 active)  in 0.006 seconds - new frequency is -100
Cbc0014I Cut generator 6 (TwoMirCuts) - 8 row cuts average 3.2 elements, 0 column cuts (0 active)  in 0.190 seconds - new frequency is -100
Cbc0014I Cut generator 7 (ZeroHalf) - 3 row cuts average 5.0 elements, 0 column cuts (0 active)  in 0.249 seconds - new frequency is -100
Cbc0010I After 0 nodes, 1 on tree, 77824 best solution, best possible 42095.332 (15.43 seconds)
Cbc0010I After 100 nodes, 3 on tree, 77824 best solution, best possible 42108.702 (71.26 seconds)
Cbc0010I After 200 nodes, 5 on tree, 77824 best solution, best possible 42108.702 (136.75 seconds)
Cbc0010I After 300 nodes, 6 on tree, 77824 best solution, best possible 42108.702 (207.59 seconds)
Cbc0010I After 400 nodes, 6 on tree, 77824 best solution, best possible 42108.702 (262.97 seconds)
Cbc0010I After 500 nodes, 3 on tree, 77824 best solution, best possible 42108.702 (324.52 seconds)
Cbc0010I After 600 nodes, 3 on tree, 77824 best solution, best possible 42108.702 (387.37 seconds)
Cbc0010I After 700 nodes, 4 on tree, 77824 best solution, best possible 42108.702 (453.10 seconds)
Cbc0010I After 800 nodes, 3 on tree, 77824 best solution, best possible 42108.702 (521.38 seconds)
Cbc0010I After 900 nodes, 6 on tree, 77824 best solution, best possible 42108.702 (591.99 seconds)
Cbc0010I After 1000 nodes, 4 on tree, 77824 best solution, best possible 42108.702 (662.82 seconds)
Cbc0010I After 1100 nodes, 6 on tree, 77824 best solution, best possible 42108.702 (731.28 seconds)
Cbc0010I After 1200 nodes, 8 on tree, 77824 best solution, best possible 42108.702 (799.59 seconds)
Cbc0010I After 1300 nodes, 13 on tree, 77824 best solution, best possible 42108.702 (868.63 seconds)
Cbc0010I After 1400 nodes, 15 on tree, 77824 best solution, best possible 42108.702 (936.82 seconds)
Cbc0010I After 1500 nodes, 26 on tree, 77824 best solution, best possible 42108.702 (988.30 seconds)
Cbc0010I After 1600 nodes, 32 on tree, 77824 best solution, best possible 42108.702 (1065.75 seconds)
Cbc0010I After 1700 nodes, 33 on tree, 77824 best solution, best possible 42108.702 (1147.21 seconds)
Cbc0010I After 1800 nodes, 35 on tree, 77824 best solution, best possible 42108.702 (1226.14 seconds)
Cbc0010I After 1900 nodes, 38 on tree, 77824 best solution, best possible 42108.702 (1306.52 seconds)
Cbc0010I After 2000 nodes, 40 on tree, 77824 best solution, best possible 42108.702 (1387.42 seconds)
Cbc0010I After 2100 nodes, 40 on tree, 77824 best solution, best possible 42108.702 (1468.11 seconds)
Cbc0010I After 2200 nodes, 45 on tree, 77824 best solution, best possible 42108.702 (1552.69 seconds)
Cbc0010I After 2300 nodes, 46 on tree, 77824 best solution, best possible 42108.702 (1637.87 seconds)
Cbc0010I After 2400 nodes, 47 on tree, 77824 best solution, best possible 42108.702 (1720.62 seconds)
Cbc0020I Exiting on maximum time
Cbc0005I Partial search - best objective 77824 (best possible 42108.702), took 3691565 iterations and 2490 nodes (1799.32 seconds)
Cbc0032I Strong branching done 10966 times (1041140 iterations), fathomed 3 nodes and fixed 19 variables
Cbc0035I Maximum depth 540, 0 variables fixed on reduced cost
Cuts at root node changed objective from 42057.5 to 42095.3
Probing was tried 374 times and created 8359 cuts of which 0 were active after adding rounds of cuts (2.221 seconds)
Gomory was tried 143 times and created 95 cuts of which 0 were active after adding rounds of cuts (1.794 seconds)
Knapsack was tried 4 times and created 0 cuts of which 0 were active after adding rounds of cuts (0.009 seconds)
Clique was tried 4 times and created 0 cuts of which 0 were active after adding rounds of cuts (0.010 seconds)
MixedIntegerRounding2 was tried 4 times and created 0 cuts of which 0 were active after adding rounds of cuts (0.009 seconds)
FlowCover was tried 4 times and created 0 cuts of which 0 were active after adding rounds of cuts (0.006 seconds)
TwoMirCuts was tried 4 times and created 8 cuts of which 0 were active after adding rounds of cuts (0.190 seconds)
ZeroHalf was tried 4 times and created 3 cuts of which 0 were active after adding rounds of cuts (0.249 seconds)

Result - Stopped on time limit

Objective value:                77824.00000000
Lower bound:                    42108.702
Gap:                            0.85
Enumerated nodes:               2490
Total iterations:               3691565
Time (CPU seconds):             1799.69
Time (Wallclock seconds):       1799.96

Total time (CPU seconds):       1799.71   (Wallclock seconds):       1799.99

